qbf_easy_train/easy_306_SAT.qdimacs
p cnf 20 47
a 1 2 12 0
e 3 4 5 6 7 8 9 10 11 13 14 15 16 17 18 19 20 0
1 2 -3 0
-1 -2 -3 0
1 -2 3 0
-1 2 3 0
5 -3 0
5 -4 0
3 4 -5 0
-8 -6 0
-8 -7 0
6 7 8 0
-9 5 0
-9 8 0
-5 -8 9 0
12 10 0
12 -11 0
-10 11 -12 0
-14 -11 0
-14 -13 0
11 13 14 0
-12 -14 -15 0
12 14 -15 0
-12 14 15 0
12 -14 15 0
-9 -15 -16 0
9 15 -16 0
-9 15 16 0
9 -15 16 0
3 4 -17 0
-3 -4 -17 0
3 -4 17 0
-3 4 17 0
-17 -1 -18 0
17 1 -18 0
-17 1 18 0
17 -1 18 0
18 -11 -19 0
-18 11 -19 0
18 11 19 0
-18 -11 19 0
-20 -16 0
-20 -19 0
16 19 20 0
-10 6 15 20 11 -9 0
-10 -11 7 0
9 4 2 -10 0
-19 11 -7 16 0
20 0
