sat_easy_train/easy_306_SAT.dimacs
p cnf 129 436
3 -1 0
3 2 0
1 -2 -3 0
5 -3 0
5 -4 0
3 4 -5 0
-7 5 0
-7 6 0
-5 -6 7 0
-9 7 0
-9 -8 0
-7 8 9 0
10 1 0
10 9 0
-1 -9 -10 0
12 8 0
12 -11 0
-8 11 -12 0
-1 -13 -14 0
1 13 -14 0
-1 13 14 0
1 -13 14 0
-15 8 0
-15 14 0
-8 -14 15 0
15 16 -17 0
-15 -16 -17 0
15 -16 17 0
-15 16 17 0
18 12 0
18 17 0
-12 -17 -18 0
-20 19 0
-20 14 0
-19 -14 20 0
22 -20 0
22 21 0
20 -21 -22 0
23 -8 0
23 5 0
8 -5 -23 0
25 -23 0
25 -24 0
23 24 -25 0
-26 -25 0
-26 -6 0
25 6 26 0
27 -22 0
27 -26 0
22 26 -27 0
-28 -18 0
-28 -27 0
18 27 28 0
-29 -10 0
-29 -28 0
10 28 29 0
-12 15 -30 0
12 -15 -30 0
-12 -15 30 0
12 15 30 0
9 -3 -31 0
-9 3 -31 0
9 3 31 0
-9 -3 31 0
-33 5 0
-33 11 0
-5 -11 33 0
34 32 0
34 -33 0
-32 33 -34 0
31 -34 -35 0
-31 34 -35 0
31 34 35 0
-31 -34 35 0
-9 -35 -36 0
9 35 -36 0
-9 35 36 0
9 -35 36 0
38 -37 0
38 -4 0
37 4 -38 0
39 38 0
39 -11 0
-38 11 -39 0
40 -36 0
40 -39 0
36 39 -40 0
30 40 -41 0
-30 -40 -41 0
30 -40 41 0
-30 40 41 0
42 38 0
42 -21 0
-38 21 -42 0
43 -42 0
43 2 0
42 -2 -43 0
45 43 0
45 -44 0
-43 44 -45 0
-46 41 0
-46 -45 0
-41 45 46 0
47 1 0
47 -37 0
-1 37 -47 0
-48 47 0
-48 47 0
-47 48 0
-49 -48 0
-49 13 0
48 -13 49 0
-50 -49 0
-50 25 0
49 -25 50 0
44 5 -51 0
-44 -5 -51 0
44 -5 51 0
-44 5 51 0
-52 -14 0
-52 -14 0
14 52 0
-51 -52 -53 0
51 52 -53 0
-51 52 53 0
51 -52 53 0
50 53 -54 0
-50 -53 -54 0
50 -53 54 0
-50 53 54 0
26 -6 -55 0
-26 6 -55 0
26 6 55 0
-26 -6 55 0
-56 -54 0
-56 55 0
54 -55 56 0
46 56 -57 0
-46 -56 -57 0
46 -56 57 0
-46 56 57 0
-58 29 0
-58 -57 0
-29 57 58 0
59 -33 0
59 15 0
33 -15 -59 0
-60 -3 0
-60 4 0
3 -4 60 0
-61 59 0
-61 60 0
-59 -60 61 0
62 25 0
62 19 0
-25 -19 -62 0
-63 32 0
-63 -16 0
-32 16 63 0
-62 -63 -64 0
62 63 -64 0
-62 63 64 0
62 -63 64 0
-65 -49 0
-65 -21 0
49 21 65 0
24 3 -66 0
-24 -3 -66 0
24 -3 66 0
-24 3 66 0
-67 -34 0
-67 -6 0
34 6 67 0
67 33 -68 0
-67 -33 -68 0
67 -33 68 0
-67 33 68 0
7 68 -69 0
-7 -68 -69 0
7 -68 69 0
-7 68 69 0
-70 -66 0
-70 -69 0
66 69 70 0
-65 70 -71 0
65 -70 -71 0
-65 -70 71 0
65 70 71 0
24 4 -72 0
-24 -4 -72 0
24 -4 72 0
-24 4 72 0
74 -72 0
74 73 0
72 -73 -74 0
75 71 0
75 74 0
-71 -74 -75 0
-76 64 0
-76 -75 0
-64 75 76 0
-77 -34 0
-77 -24 0
34 24 77 0
78 76 0
78 77 0
-76 -77 -78 0
43 32 -79 0
-43 -32 -79 0
43 -32 79 0
-43 32 79 0
-80 6 0
-80 -79 0
-6 79 80 0
-80 6 -81 0
80 -6 -81 0
-80 -6 81 0
80 6 81 0
82 33 0
82 81 0
-33 -81 -82 0
-78 -82 -83 0
78 82 -83 0
-78 82 83 0
78 -82 83 0
-61 83 -84 0
61 -83 -84 0
-61 -83 84 0
61 83 84 0
-58 84 -85 0
58 -84 -85 0
-58 -84 85 0
58 84 85 0
-86 -1 0
-86 -37 0
1 37 86 0
-62 -86 -87 0
62 86 -87 0
-62 86 87 0
62 -86 87 0
-88 13 0
-88 87 0
-13 -87 88 0
-42 -70 -89 0
42 70 -89 0
-42 70 89 0
42 -70 89 0
90 -4 0
90 -24 0
4 24 -90 0
-89 90 -91 0
89 -90 -91 0
-89 -90 91 0
89 90 91 0
19 -49 -92 0
-19 49 -92 0
19 49 92 0
-19 -49 92 0
93 91 0
93 -92 0
-91 92 -93 0
-88 93 -94 0
88 -93 -94 0
-88 -93 94 0
88 93 94 0
-95 17 0
-95 69 0
-17 -69 95 0
-96 -3 0
-96 32 0
3 -32 96 0
-97 -73 0
-97 -96 0
73 96 97 0
-98 38 0
-98 -44 0
-38 44 98 0
-98 62 -99 0
98 -62 -99 0
-98 -62 99 0
98 62 99 0
-100 -99 0
-100 14 0
99 -14 100 0
101 -97 0
101 100 0
97 -100 -101 0
-102 98 0
-102 19 0
-98 -19 102 0
103 -101 0
103 102 0
101 -102 -103 0
-104 95 0
-104 -103 0
-95 103 104 0
13 -16 -105 0
-13 16 -105 0
13 16 105 0
-13 -16 105 0
-106 -105 0
-106 13 0
105 -13 106 0
-106 -37 -107 0
106 37 -107 0
-106 37 107 0
106 -37 107 0
-96 -26 -109 0
96 26 -109 0
-96 26 109 0
96 -26 109 0
108 -109 -110 0
-108 109 -110 0
108 109 110 0
-108 -109 110 0
-111 107 0
-111 -110 0
-107 110 111 0
-112 -68 0
-112 3 0
68 -3 112 0
-22 112 -113 0
22 -112 -113 0
-22 -112 113 0
22 112 113 0
-114 -111 0
-114 -113 0
111 113 114 0
-104 -114 -115 0
104 114 -115 0
-104 114 115 0
104 -114 115 0
-116 94 0
-116 -115 0
-94 115 116 0
-117 22 0
-117 -23 0
-22 23 117 0
-38 16 -118 0
38 -16 -118 0
-38 -16 118 0
38 16 118 0
-24 119 0
24 119 0
120 -5 0
120 -119 0
5 119 -120 0
118 -120 -121 0
-118 120 -121 0
118 120 121 0
-118 -120 121 0
-117 121 -122 0
117 -121 -122 0
-117 -121 122 0
117 121 122 0
123 38 0
123 47 0
-38 -47 -123 0
124 -123 0
124 66 0
123 -66 -124 0
125 122 0
125 -124 0
-122 124 -125 0
126 25 0
126 44 0
-25 -44 -126 0
-127 -125 0
-127 -126 0
125 126 127 0
-116 -127 -128 0
116 127 -128 0
-116 127 128 0
116 -127 128 0
-85 -128 -129 0
85 128 -129 0
-85 128 129 0
85 -128 129 0
126 -128 0
-54 -12 -57 0
-14 70 122 -93 107 -4 0
-55 41 94 -34 -47 -116 0
120 -51 0
-78 -56 -43 0
-18 -46 0
17 85 1 128 78 0
-113 -28 44 0
15 34 0
128 -94 -118 0
-37 -16 126 -92 -20 13 0
-57 -91 -58 -5 102 -110 0
44 54 11 -113 0
-70 31 32 -17 -30 0
-123 -76 -74 52 84 0
-91 -28 0
-59 -125 48 0
108 72 50 -56 -19 0
34 -13 -60 94 0
-103 -32 19 -123 -113 0
88 128 -72 50 -111 0
4 78 69 47 0
-49 8 -12 39 19 0
-9 114 0
27 106 0
99 33 -19 21 122 0
80 87 46 -109 -47 0
-18 -11 83 -3 -94 4 0
120 -44 -89 55 92 0
-27 -40 0
-80 72 -61 -95 75 -48 0
-108 -8 -37 36 -72 34 0
-21 12 5 -24 -126 0
44 8 -114 60 0
38 56 0
43 15 -4 105 0
113 -86 0
-7 94 22 -65 -15 0
125 80 -46 38 27 53 0
29 114 69 -125 91 81 0
89 -96 56 -88 101 21 0
125 -38 -8 -68 25 3 0
-9 72 0
-20 -109 -65 0
76 83 62 0
-116 -7 -121 63 -100 -50 0
79 31 46 0
-9 -79 -13 102 0
-61 -25 71 6 73 -106 0
48 -91 47 0
-123 -119 124 109 69 -120 0
-1 -49 0
-106 84 0
4 -86 -13 -109 -9 8 0
97 -14 -79 -13 -11 96 0
-106 52 0
129 0
